8
0, 822, 497, 502, 233, 354, 274, 271
822, 0, 487, 509, 990, 861, 1001, 1004
497, 487, 0, 25, 577, 730, 757, 756
502, 509, 25, 0, 571, 745, 765, 763
233, 990, 577, 571, 0, 563, 405, 398
354, 861, 730, 745, 563, 0, 227, 235
274, 1001, 757, 765, 405, 227, 0, 8
271, 1004, 756, 763, 398, 235, 8, 0
